60 1000
1 475
2 256 3 4 5 6 7 10 11 12 13 15 17 18 19 22 23 25 26 27 28 31 33 34 35 36 37 38 41 43 45 47 50 52 54 55 58 59 60
3 269 4 5 6 7 10 11 15 18 19 22 23 25 26 27 28 31 33 34 36 37 41 43 45 47 50 52 54 55 58
4 396 5 6 7 10 11 15 17 18 19 22 23 25 26 27 28 31 33 34 36 37 41 43 45 47 50 52 54 55 58
5 264 6 7 10 11 12 13 15 17 18 19 22 23 25 26 27 28 31 33 34 35 36 37 38 41 43 45 47 50 52 54 55 58 59 60
6 340 7 8 9 10 11 12 13 14 15 17 18 19 21 22 23 25 26 27 28 31 33 34 35 36 37 38 39 41 42 43 45 47 48 50 51 52 53 54 55 58 59 60
7 468 10 11 12 13 15 17 18 19 22 23 25 26 27 28 31 33 34 35 36 37 38 41 43 45 47 48 50 52 54 55 58 59 60
8 262 26 45
9 270 11 18 26 28 45 52 55 58
10 361 11 12 15 17 18 19 22 23 25 26 27 28 31 33 34 35 36 37 38 41 43 45 47 50 52 54 55 58 59
11 300 12 13 14 15 17 18 19 22 23 25 26 27 28 31 33 34 35 36 37 38 41 42 43 45 47 48 50 52 53 54 55 58 59 60
12 339 18 19 23 26 28 31 33 34 36 43 45 47 50 52 55 58
13 444 18 19 26 28 31 34 36 43 45 47 52 55 58
14 251 18 26 28 45 52 55 58
15 305 18 19 23 25 26 27 28 31 33 34 36 37 41 43 45 47 50 52 54 55 58
16 366
17 252 18 19 23 26 27 28 31 33 34 36 37 43 45 47 50 52 54 55 58
18 382 19 22 23 25 26 27 28 31 33 34 35 36 37 38 41 42 43 45 47 48 50 52 53 54 55 58 59 60
19 409 22 23 25 26 27 28 31 33 34 35 36 37 38 41 43 45 47 50 52 54 55 58 59 60
20 277
21 314 26 45
22 465 23 26 27 28 31 33 34 36 37 41 43 45 47 50 52 54 55 58
23 260 25 26 27 28 31 33 34 35 36 37 41 43 45 47 50 52 54 55 58
24 275
25 447 26 27 28 31 33 34 36 37 41 43 45 47 50 52 54 55 58
26 251 27 28 31 33 34 35 36 37 38 39 41 42 43 45 47 48 50 51 52 53 54 55 58 59 60
27 302 28 31 33 34 36 37 41 43 45 47 50 52 54 55 58
28 399 31 33 34 35 36 37 38 41 42 43 45 47 48 50 51 52 53 54 55 58 59 60
29 297
30 304
31 423 33 34 35 36 37 38 41 43 45 47 48 50 52 54 55 58 59 60
32 258
33 319 34 35 36 37 38 41 43 45 47 50 52 54 55 58 59
34 473 35 36 37 38 41 43 45 47 48 50 52 54 55 58 59 60
35 260 36 43 45 47 50 52 55 58
36 267 37 38 41 43 45 47 50 52 54 55 58 59 60
37 426 41 43 45 47 50 52 54 55 58
38 261 43 45 47 50 52 55 58
39 313 45
40 403
41 289 43 45 47 50 52 54 55 58
42 308 45 52 55 58
43 402 45 47 50 52 54 55 58 59 60
44 265
45 333 47 48 50 51 52 53 54 55 58 59 60
46 396
47 257 50 52 54 55 58 59 60
48 347 52 55 58
49 411
50 282 52 54 55 58 59 60
51 307
52 462 53 54 55 58 59 60
53 258 55
54 280 55 58
55 412 58 59 60
56 254
57 334
58 376 59 60
59 255
60 369
